NAME : X-n125-k30
COMMENT : "Generated by Uchoa, Pecin, Pessoa, Poggi, Subramanian, and Vidal (2013)"
TYPE : CVRP
DIMENSION : 125
EDGE_WEIGHT_TYPE : EUC_2D
EDGE_WEIGHT_FORMAT : 
CAPACITY : 188
DISTANCE : 1.79769e+308
SERVICE_TIME : 0
NODE_COORD_SECTION
1 989 944
2 5 730
3 769 200
4 698 515
5 72 561
6 52 397
7 771 177
8 81 537
9 43 371
10 716 202
11 106 406
12 627 172
13 10 338
14 776 432
15 761 469
16 759 287
17 593 363
18 773 290
19 129 398
20 709 193
21 99 564
22 163 418
23 48 619
24 907 406
25 929 527
26 69 672
27 675 960
28 50 763
29 736 240
30 46 518
31 128 793
32 699 581
33 58 398
34 43 393
35 783 186
36 58 360
37 45 712
38 38 393
39 652 524
40 37 364
41 37 617
42 61 534
43 664 358
44 555 445
45 712 465
46 38 469
47 2 729
48 65 620
49 156 497
50 857 475
51 773 234
52 879 98
53 685 466
54 21 421
55 109 536
56 60 738
57 897 564
58 96 383
59 76 582
60 739 193
61 669 548
62 284 462
63 193 813
64 15 696
65 102 541
66 28 578
67 828 292
68 73 519
69 70 645
70 40 433
71 745 159
72 0 486
73 75 511
74 228 312
75 732 427
76 61 407
77 495 621
78 84 538
79 751 246
80 22 714
81 63 571
82 641 350
83 873 540
84 211 418
85 287 618
86 155 796
87 627 595
88 546 199
89 795 58
90 805 15
91 649 486
92 145 377
93 673 319
94 700 678
95 86 623
96 158 613
97 673 619
98 738 444
99 17 449
100 122 182
101 108 334
102 100 550
103 677 505
104 23 365
105 20 512
106 892 41
107 452 457
108 70 541
109 224 931
110 67 692
111 198 317
112 513 731
113 159 369
114 51 378
115 556 137
116 800 100
117 795 278
118 158 773
119 43 656
120 41 488
121 70 375
122 132 545
123 203 328
124 728 467
125 759 208
PICKUP_AND_DELIVERY_SECTION
1 0 0 0 0 0 0
2 0 0 0 0 0 32
3 0 0 0 0 0 7
4 0 0 0 0 0 83
5 0 0 0 0 30 0
6 0 0 0 0 0 62
7 0 0 0 0 0 26
8 0 0 0 0 0 31
9 0 0 0 0 75 0
10 0 0 0 0 0 5
11 0 0 0 0 0 85
12 0 0 0 0 0 15
13 0 0 0 0 94 0
14 0 0 0 0 0 16
15 0 0 0 0 0 38
16 0 0 0 0 0 32
17 0 0 0 0 5 0
18 0 0 0 0 0 17
19 0 0 0 0 0 92
20 0 0 0 0 0 50
21 0 0 0 0 16 0
22 0 0 0 0 0 79
23 0 0 0 0 0 11
24 0 0 0 0 0 33
25 0 0 0 0 60 0
26 0 0 0 0 0 11
27 0 0 0 0 0 96
28 0 0 0 0 0 46
29 0 0 0 0 48 0
30 0 0 0 0 0 31
31 0 0 0 0 0 25
32 0 0 0 0 0 96
33 0 0 0 0 71 0
34 0 0 0 0 0 61
35 0 0 0 0 0 3
36 0 0 0 0 0 100
37 0 0 0 0 6 0
38 0 0 0 0 0 94
39 0 0 0 0 0 88
40 0 0 0 0 0 53
41 0 0 0 0 19 0
42 0 0 0 0 0 50
43 0 0 0 0 0 19
44 0 0 0 0 0 39
45 0 0 0 0 21 0
46 0 0 0 0 0 95
47 0 0 0 0 0 7
48 0 0 0 0 0 40
49 0 0 0 0 51 0
50 0 0 0 0 0 16
51 0 0 0 0 0 47
52 0 0 0 0 0 13
53 0 0 0 0 30 0
54 0 0 0 0 0 56
55 0 0 0 0 0 5
56 0 0 0 0 0 9
57 0 0 0 0 95 0
58 0 0 0 0 0 70
59 0 0 0 0 0 5
60 0 0 0 0 0 31
61 0 0 0 0 80 0
62 0 0 0 0 0 53
63 0 0 0 0 0 28
64 0 0 0 0 0 38
65 0 0 0 0 7 0
66 0 0 0 0 0 28
67 0 0 0 0 0 18
68 0 0 0 0 0 31
69 0 0 0 0 6 0
70 0 0 0 0 0 71
71 0 0 0 0 0 1
72 0 0 0 0 0 84
73 0 0 0 0 47 0
74 0 0 0 0 0 68
75 0 0 0 0 0 12
76 0 0 0 0 0 88
77 0 0 0 0 39 0
78 0 0 0 0 0 31
79 0 0 0 0 0 6
80 0 0 0 0 0 30
81 0 0 0 0 19 0
82 0 0 0 0 0 38
83 0 0 0 0 0 74
84 0 0 0 0 0 75
85 0 0 0 0 2 0
86 0 0 0 0 0 31
87 0 0 0 0 0 67
88 0 0 0 0 0 47
89 0 0 0 0 47 0
90 0 0 0 0 0 36
91 0 0 0 0 0 20
92 0 0 0 0 0 65
93 0 0 0 0 17 0
94 0 0 0 0 0 81
95 0 0 0 0 0 38
96 0 0 0 0 0 8
97 0 0 0 0 95 0
98 0 0 0 0 0 18
99 0 0 0 0 0 70
100 0 0 0 0 0 95
101 0 0 0 0 65 0
102 0 0 0 0 0 42
103 0 0 0 0 0 88
104 0 0 0 0 0 88
105 0 0 0 0 5 0
106 0 0 0 0 0 43
107 0 0 0 0 0 76
108 0 0 0 0 0 46
109 0 0 0 0 17 0
110 0 0 0 0 0 36
111 0 0 0 0 0 74
112 0 0 0 0 0 97
113 0 0 0 0 86 0
114 0 0 0 0 0 65
115 0 0 0 0 0 38
116 0 0 0 0 0 47
117 0 0 0 0 41 0
118 0 0 0 0 0 17
119 0 0 0 0 0 7
120 0 0 0 0 0 52
121 0 0 0 0 98 0
122 0 0 0 0 0 39
123 0 0 0 0 0 59
124 0 0 0 0 0 10
125 0 0 0 0 50 0
